(set-logic QF_S)
(set-option :parse-transducers true)
(set-option :produce-models true)
(define-fun-rec toLower ((x String) (y String)) Bool
   (or (and (= x "") (= y ""))
       (and (not (= x "")) (not (= y ""))
           (= (char.code (str.head y))
               (ite (and (<= 65 (char.code (str.head x)))
                       (<= (char.code (str.head x)) 90))
                   (+ (char.code (str.head x)) 32)
                   (char.code (str.head x))))
           (toLower (str.tail x) (str.tail y))))
)
(declare-fun sym205 () String)
(declare-fun sym328 () String)
(declare-fun sym605 () String)
(declare-fun sym729 () String)
(declare-fun sym363 () String)
(declare-fun sym683 () String)
(declare-fun sym443 () String)
(declare-fun sym289 () String)
(declare-fun sym763 () String)
(declare-fun sym489 () String)
(declare-fun sym523 () String)
(declare-fun sym160 () String)
(declare-fun sym338 () String)
(declare-fun sym739 () String)
(declare-fun sym619 () String)
(declare-fun sym571 () String)
(declare-fun sym175 () String)
(declare-fun sym254 () String)
(declare-fun sym299 () String)
(declare-fun sym453 () String)
(declare-fun sym377 () String)
(declare-fun sym135 () String)
(declare-fun sym773 () String)
(declare-fun sym653 () String)
(declare-fun sym499 () String)
(declare-fun sym533 () String)
(declare-fun sym699 () String)
(declare-fun sym215 () String)
(declare-fun sym413 () String)
(declare-fun sym709 () String)
(declare-fun sym469 () String)
(declare-fun sym20 () String)
(declare-fun sym629 () String)
(declare-fun sym509 () String)
(declare-fun sym264 () String)
(declare-fun sym387 () String)
(declare-fun sym663 () String)
(declare-fun sym543 () String)
(declare-fun sym225 () String)
(declare-fun sym423 () String)
(declare-fun sym581 () String)
(declare-fun sym185 () String)
(declare-fun sym719 () String)
(declare-fun sym557 () String)
(declare-fun sym239 () String)
(declare-fun sym639 () String)
(declare-fun sym595 () String)
(declare-fun sym353 () String)
(declare-fun sym397 () String)
(declare-fun sym673 () String)
(declare-fun sym113 () String)
(declare-fun sym279 () String)
(declare-fun sym433 () String)
(declare-fun sym753 () String)
(declare-fun sym313 () String)
(declare-fun sym479 () String)
(declare-fun sym150 () String)
(declare-fun sym195 () String)
(declare-fun L106  () String)
(declare-fun L43  () String)
(declare-fun L11  () String)
(declare-fun L55  () String)
(declare-fun L3  () String)
(declare-fun L71  () String)
(declare-fun L110  () String)
(declare-fun L114  () String)
(declare-fun L38  () String)
(declare-fun L18  () String)
(declare-fun L34  () String)
(declare-fun L78  () String)
(declare-fun L46  () String)
(declare-fun L14  () String)
(declare-fun L58  () String)
(declare-fun L26  () String)
(declare-fun L30  () String)
(declare-fun L74  () String)
(declare-fun L8  () String)
(declare-fun L42  () String)
(declare-fun L86  () String)
(declare-fun L10  () String)
(declare-fun L54  () String)
(declare-fun L98  () String)
(declare-fun L22  () String)
(declare-fun L66  () String)
(declare-fun L70  () String)
(declare-fun L4  () String)
(declare-fun L82  () String)
(declare-fun L50  () String)
(declare-fun L94  () String)
(declare-fun L62  () String)
(declare-fun L0  () String)
(declare-fun L103  () String)
(declare-fun L90  () String)
(declare-fun L25  () String)
(declare-fun L5  () String)
(declare-fun L108  () String)
(declare-fun L1  () String)
(declare-fun L100  () String)
(declare-fun L112  () String)
(declare-fun L16  () String)
(declare-fun L28  () String)
(declare-fun L12  () String)
(declare-fun L56  () String)
(declare-fun L24  () String)
(declare-fun L68  () String)
(declare-fun L36  () String)
(declare-fun L48  () String)
(declare-fun L52  () String)
(declare-fun L96  () String)
(declare-fun L20  () String)
(declare-fun L64  () String)
(declare-fun L32  () String)
(declare-fun L76  () String)
(declare-fun L6  () String)
(declare-fun L44  () String)
(declare-fun L88  () String)
(declare-fun L92  () String)
(declare-fun L60  () String)
(declare-fun L72  () String)
(declare-fun L2  () String)
(declare-fun L40  () String)
(declare-fun L84  () String)
(declare-fun L80  () String)
(declare-fun L101  () String)
(assert (toLower sym413  L101 ))
(assert (toLower sym605  L80 ))
(assert (toLower sym338  L84 ))
(assert (toLower sym353  L40 ))
(assert (toLower sym509  L2 ))
(assert (toLower sym773  L72 ))
(assert (toLower sym523  L60 ))
(assert (toLower sym619  L92 ))
(assert (toLower sym363  L88 ))
(assert (toLower sym557  L44 ))
(assert (toLower sym377  L6 ))
(assert (toLower sym433  L76 ))
(assert (toLower sym489  L32 ))
(assert (toLower sym709  L64 ))
(assert (toLower sym443  L20 ))
(assert (toLower sym719  L96 ))
(assert (toLower sym753  L52 ))
(assert (toLower sym763  L48 ))
(assert (toLower sym729  L36 ))
(assert (toLower sym313  L68 ))
(assert (toLower sym673  L24 ))
(assert (toLower sym571  L56 ))
(assert (toLower sym479  L12 ))
(assert (toLower sym264  L28 ))
(assert (toLower sym205  L16 ))
(assert (toLower sym453  L112 ))
(assert (toLower sym20  L100 ))
(assert (toLower "length"  L1 ))
(assert (toLower sym387  L108 ))
(assert (toLower "name"  L5 ))
(assert (toLower "type"  L25 ))
(assert (toLower sym328  L90 ))
(assert (toLower sym423  L103 ))
(assert (toLower sym683  L0 ))
(assert (toLower sym653  L62 ))
(assert (toLower sym739  L94 ))
(assert (toLower sym699  L50 ))
(assert (toLower sym185  L82 ))
(assert (toLower sym239  L4 ))
(assert (toLower sym225  L70 ))
(assert (toLower sym397  L66 ))
(assert (toLower sym469  L22 ))
(assert (toLower sym215  L98 ))
(assert (toLower sym113  L54 ))
(assert (toLower sym533  L10 ))
(assert (toLower sym299  L86 ))
(assert (toLower sym543  L42 ))
(assert (toLower sym254  L8 ))
(assert (toLower sym499  L74 ))
(assert (toLower sym135  L30 ))
(assert (toLower sym279  L26 ))
(assert (toLower sym289  L58 ))
(assert (toLower sym595  L14 ))
(assert (toLower sym150  L46 ))
(assert (toLower sym195  L78 ))
(assert (toLower sym639  L34 ))
(assert (toLower sym160  L18 ))
(assert (toLower sym581  L38 ))
(assert (toLower sym629  L114 ))
(assert (toLower sym175  L110 ))
(assert (toLower "table"  L71 ))
(assert (toLower "option"  L3 ))
(assert (toLower "database"  L55 ))
(assert (toLower "description"  L11 ))
(assert (toLower "field"  L43 ))
(assert (toLower sym663  L106 ))

(assert (= L0 L1 ))
(assert (= L2 L3 ))
(assert (= L4 L5 ))
(assert (not (= L6 L5 )))
(assert (not (= L8 L5 )))
(assert (not (= L10 L11 )))
(assert (not (= L12 L11 )))
(assert (not (= L14 L5 )))
(assert (not (= L16 L5 )))
(assert (= L18 L11 ))
(assert (not (= L20 L1 )))
(assert (not (= L22 L5 )))
(assert (not (= L24 L25 )))
(assert (not (= L26 L5 )))
(assert (= L28 L11 ))
(assert (= L30 L5 ))
(assert (not (= L32 L25 )))
(assert (= L34 L25 ))
(assert (not (= L36 L1 )))
(assert (= L38 L11 ))
(assert (not (= L40 L5 )))
(assert (= L42 L43 ))
(assert (= L44 L5 ))
(assert (not (= L46 L5 )))
(assert (not (= L48 L11 )))
(assert (not (= L50 L5 )))
(assert (not (= L52 L5 )))
(assert (= L54 L55 ))
(assert (not (= L56 L5 )))
(assert (not (= L58 L11 )))
(assert (not (= L60 L5 )))
(assert (not (= L62 L5 )))
(assert (not (= L64 L11 )))
(assert (= L66 L25 ))
(assert (= L68 L5 ))
(assert (= L70 L71 ))
(assert (not (= L72 L43 )))
(assert (not (= L74 L1 )))
(assert (not (= L76 L25 )))
(assert (not (= L78 L71 )))
(assert (= L80 L11 ))
(assert (not (= L82 L11 )))
(assert (= L84 L11 ))
(assert (= L86 L43 ))
(assert (= L88 L11 ))
(assert (not (= L90 L5 )))
(assert (not (= L92 L5 )))
(assert (= L94 L3 ))
(assert (not (= L96 L25 )))
(assert (not (= L98 L11 )))
(assert (not (= L100 "sql" )))
(assert (not (= L101 L5 )))
(assert (not (= L103 L11 )))
(assert (= L100 "html" ))
(assert (not (= L106 L11 )))
(assert (not (= L108 L11 )))
(assert (not (= L110 L5 )))
(assert (= L112 L3 ))
(assert (not (= L114 L11 )))
(check-sat)
(get-model)
(exit)
